\ENCODING=ISO-8859-1
\Problem name: ilog.cplex

Maximize
 obj: 16 x_ijk_0_0_0 + 16 x_ijk_0_0_1 + 16 x_ijk_0_0_2 + 16 x_ijk_0_0_3
      + 3 x_ijk_0_1_0 + 3 x_ijk_0_1_1 + 3 x_ijk_0_1_2 + 3 x_ijk_0_1_3
      + 14 x_ijk_0_2_0 + 14 x_ijk_0_2_1 + 14 x_ijk_0_2_2 + 14 x_ijk_0_2_3
      + 10 x_ijk_0_3_0 + 10 x_ijk_0_3_1 + 10 x_ijk_0_3_2 + 10 x_ijk_0_3_3
      + 10 x_ijk_0_4_0 + 10 x_ijk_0_4_1 + 10 x_ijk_0_4_2 + 10 x_ijk_0_4_3
      + 18 x_ijk_1_0_0 + 18 x_ijk_1_0_1 + 18 x_ijk_1_0_2 + 18 x_ijk_1_0_3
      + 11 x_ijk_1_1_0 + 11 x_ijk_1_1_1 + 11 x_ijk_1_1_2 + 11 x_ijk_1_1_3
      + 5 x_ijk_1_2_0 + 5 x_ijk_1_2_1 + 5 x_ijk_1_2_2 + 5 x_ijk_1_2_3
      + 2 x_ijk_2_0_0 + 2 x_ijk_2_0_1 + 2 x_ijk_2_0_2 + 2 x_ijk_2_0_3
      + 20 x_ijk_2_1_0 + 20 x_ijk_2_1_1 + 20 x_ijk_2_1_2 + 20 x_ijk_2_1_3
Subject To
 c1:  40 x_ijk_0_0_0 + 26 x_ijk_0_1_0 + 18 x_ijk_0_2_0 + 16 x_ijk_0_3_0
      + 17 x_ijk_0_4_0 + 20 x_ijk_1_0_0 + 34 x_ijk_1_1_0 + 23 x_ijk_1_2_0
      + 13 x_ijk_2_0_0 + 38 x_ijk_2_1_0 - Rgc1  = -2147483647
 c2:  39 x_ijk_0_0_1 + 16 x_ijk_0_1_1 + 37 x_ijk_0_2_1 + 9 x_ijk_0_3_1
      + 23 x_ijk_0_4_1 + 7 x_ijk_1_0_1 + 10 x_ijk_1_1_1 + 13 x_ijk_1_2_1
      + 30 x_ijk_2_0_1 + 15 x_ijk_2_1_1 - Rgc2  = -2147483647
 c3:  15 x_ijk_0_0_2 + 36 x_ijk_0_1_2 + 10 x_ijk_0_2_2 + 35 x_ijk_0_3_2
      + 30 x_ijk_0_4_2 + 8 x_ijk_1_0_2 + 16 x_ijk_1_1_2 + 23 x_ijk_1_2_2
      + 8 x_ijk_2_0_2 + 4 x_ijk_2_1_2 - Rgc3  = -2147483647
 c4:  5 x_ijk_0_0_3 + x_ijk_0_1_3 + 2 x_ijk_0_2_3 + 4 x_ijk_0_3_3
      + 2 x_ijk_0_4_3 + x_ijk_1_0_3 + 4 x_ijk_1_1_3 + 6 x_ijk_1_2_3
      + x_ijk_2_0_3 + x_ijk_2_1_3 - Rgc4  = -2147483647
 c5:  x_ijk_0_0_0 + x_ijk_0_1_0 + x_ijk_0_2_0 + x_ijk_0_3_0 + x_ijk_0_4_0
      - Rgc5  = -2147483647
 c6:  x_ijk_0_0_1 + x_ijk_0_1_1 + x_ijk_0_2_1 + x_ijk_0_3_1 + x_ijk_0_4_1
      - Rgc6  = -2147483647
 c7:  x_ijk_0_0_2 + x_ijk_0_1_2 + x_ijk_0_2_2 + x_ijk_0_3_2 + x_ijk_0_4_2
      - Rgc7  = -2147483647
 c8:  x_ijk_0_0_3 + x_ijk_0_1_3 + x_ijk_0_2_3 + x_ijk_0_3_3 + x_ijk_0_4_3
      - Rgc8  = -2147483647
 c9:  x_ijk_1_0_0 + x_ijk_1_1_0 + x_ijk_1_2_0 - Rgc9  = -2147483647
 c10: x_ijk_1_0_1 + x_ijk_1_1_1 + x_ijk_1_2_1 - Rgc10  = -2147483647
 c11: x_ijk_1_0_2 + x_ijk_1_1_2 + x_ijk_1_2_2 - Rgc11  = -2147483647
 c12: x_ijk_1_0_3 + x_ijk_1_1_3 + x_ijk_1_2_3 - Rgc12  = -2147483647
 c13: x_ijk_2_0_0 + x_ijk_2_1_0 - Rgc13  = -2147483647
 c14: x_ijk_2_0_1 + x_ijk_2_1_1 - Rgc14  = -2147483647
 c15: x_ijk_2_0_2 + x_ijk_2_1_2 - Rgc15  = -2147483647
 c16: x_ijk_2_0_3 + x_ijk_2_1_3 - Rgc16  = -2147483647
Bounds
 0 <= x_ijk_0_0_0 <= 1
 0 <= x_ijk_0_0_1 <= 1
 0 <= x_ijk_0_0_2 <= 1
 0 <= x_ijk_0_0_3 <= 1
 0 <= x_ijk_0_1_0 <= 1
 0 <= x_ijk_0_1_1 <= 1
 0 <= x_ijk_0_1_2 <= 1
 0 <= x_ijk_0_1_3 <= 1
 0 <= x_ijk_0_2_0 <= 1
 0 <= x_ijk_0_2_1 <= 1
 0 <= x_ijk_0_2_2 <= 1
 0 <= x_ijk_0_2_3 <= 1
 0 <= x_ijk_0_3_0 <= 1
 0 <= x_ijk_0_3_1 <= 1
 0 <= x_ijk_0_3_2 <= 1
 0 <= x_ijk_0_3_3 <= 1
 0 <= x_ijk_0_4_0 <= 1
 0 <= x_ijk_0_4_1 <= 1
 0 <= x_ijk_0_4_2 <= 1
 0 <= x_ijk_0_4_3 <= 1
 0 <= x_ijk_1_0_0 <= 1
 0 <= x_ijk_1_0_1 <= 1
 0 <= x_ijk_1_0_2 <= 1
 0 <= x_ijk_1_0_3 <= 1
 0 <= x_ijk_1_1_0 <= 1
 0 <= x_ijk_1_1_1 <= 1
 0 <= x_ijk_1_1_2 <= 1
 0 <= x_ijk_1_1_3 <= 1
 0 <= x_ijk_1_2_0 <= 1
 0 <= x_ijk_1_2_1 <= 1
 0 <= x_ijk_1_2_2 <= 1
 0 <= x_ijk_1_2_3 <= 1
 0 <= x_ijk_2_0_0 <= 1
 0 <= x_ijk_2_0_1 <= 1
 0 <= x_ijk_2_0_2 <= 1
 0 <= x_ijk_2_0_3 <= 1
 0 <= x_ijk_2_1_0 <= 1
 0 <= x_ijk_2_1_1 <= 1
 0 <= x_ijk_2_1_2 <= 1
 0 <= x_ijk_2_1_3 <= 1
 0 <= Rgc1 <= 2147483740
 0 <= Rgc2 <= 2147483689
 0 <= Rgc3 <= 2147483696
 0 <= Rgc4 <= 2147483653
 0 <= Rgc5 <= 2147483648
 0 <= Rgc6 <= 2147483648
 0 <= Rgc7 <= 2147483648
 0 <= Rgc8 <= 2147483648
 0 <= Rgc9 <= 2147483648
 0 <= Rgc10 <= 2147483648
 0 <= Rgc11 <= 2147483648
 0 <= Rgc12 <= 2147483648
 0 <= Rgc13 <= 2147483648
 0 <= Rgc14 <= 2147483648
 0 <= Rgc15 <= 2147483648
 0 <= Rgc16 <= 2147483648
Generals
 x_ijk_0_0_0  x_ijk_0_0_1  x_ijk_0_0_2  x_ijk_0_0_3  x_ijk_0_1_0  x_ijk_0_1_1 
 x_ijk_0_1_2  x_ijk_0_1_3  x_ijk_0_2_0  x_ijk_0_2_1  x_ijk_0_2_2  x_ijk_0_2_3 
 x_ijk_0_3_0  x_ijk_0_3_1  x_ijk_0_3_2  x_ijk_0_3_3  x_ijk_0_4_0  x_ijk_0_4_1 
 x_ijk_0_4_2  x_ijk_0_4_3  x_ijk_1_0_0  x_ijk_1_0_1  x_ijk_1_0_2  x_ijk_1_0_3 
 x_ijk_1_1_0  x_ijk_1_1_1  x_ijk_1_1_2  x_ijk_1_1_3  x_ijk_1_2_0  x_ijk_1_2_1 
 x_ijk_1_2_2  x_ijk_1_2_3  x_ijk_2_0_0  x_ijk_2_0_1  x_ijk_2_0_2  x_ijk_2_0_3 
 x_ijk_2_1_0  x_ijk_2_1_1  x_ijk_2_1_2  x_ijk_2_1_3 
End
